HUN,8,6,487
2,22,5,24,3,29,4,28,1,30,0,21
3,27,0,25,2,27,5,22,1,22,4,24
3,27,2,21,4,27,1,21,0,26,5,27
2,27,3,28,1,26,5,23,0,29,4,27
3,21,4,21,1,23,5,24,2,25,0,23
3,21,5,29,2,24,1,29,4,22,0,26
2,22,3,23,0,25,5,28,1,25,4,26
2,26,0,30,4,25,1,26,5,27,3,24
